language Essence 1.3

letting class be function(1 --> 2, 2 --> 2, 3 --> 2, 4 --> 2, 5 --> 2, 6 --> 2, 7 --> 2, 8 --> 1)
letting deck_length be 8
letting deck_width be 68
letting length be function(1 --> 6, 2 --> 6, 3 --> 2, 4 --> 3, 5 --> 4, 6 --> 1, 7 --> 7, 8 --> 7)
letting n_classes be 2
letting n_containers be 8
letting separation be function()
letting width be function(1 --> 9, 2 --> 1, 3 --> 1, 4 --> 1, 5 --> 1, 6 --> 1, 7 --> 22, 8 --> 9)
